98
105
0
35
97
30
29
70
9
84
55
43
60
61
31
22
52
106
54
29
30
75
14
47
56
68
32
20
44
78
74
32
89
124
70
52
28
37
0
53
129
64
81
78
39
52
66
21
26
55
14
13
30
101
0
53
40
70
27
50
29
97
121
74
48
43
43
73
18
97
42
90
55
17
19
68
81
54
18
68
69
0
96
18
17
105
59
54
57
52
33
98
31
56
0
105
51
34
17
50
